c Random generated cnf formula, satisfiable: false
p cnf 10 50
-8 3 -9 0
-6 -10 -8 0
-7 -10 -9 0
7 10 2 0
-3 -1 -10 0
-5 -10 3 0
-9 5 -2 0
-6 -7 -1 0
9 -5 -10 0
9 8 -3 0
-8 10 -7 0
-7 2 10 0
8 2 -3 0
-1 -5 9 0
-6 -1 7 0
-10 2 4 0
-9 -7 3 0
-10 -3 -4 0
1 -6 4 0
1 -6 9 0
3 -9 1 0
1 -2 8 0
6 10 5 0
-1 -10 9 0
-2 -8 -1 0
6 -4 -5 0
9 3 -1 0
-9 -10 6 0
3 7 -4 0
-9 4 3 0
-6 8 5 0
-5 1 -4 0
-2 8 9 0
7 8 -1 0
10 6 2 0
7 10 -8 0
5 6 -9 0
4 8 -3 0
1 9 -2 0
-3 4 -5 0
7 -2 -3 0
1 -10 9 0
-10 1 8 0
2 6 -8 0
-6 -7 -4 0
-5 6 3 0
-8 -5 7 0
5 -9 -10 0
-8 -6 -1 0
3 4 10 0
